NAME : explosion
TYPE : TSP
DIMENSION : 50
EDGE_WEIGHT_TYPE : EUC_2D
NODE_COORD_SECTION
1 245506 957187
2 209754 603355
3 219171 615737
4 252792 542097
5 188211 251561
6 124862 338533
7 535612 586400
8 43876 959017
9 139620 858126
10 4596 25449
11 408663 848463
12 458859 695880
13 39030 808682
14 327620 9928
15 384248 840628
16 704780 732289
17 289132 587511
18 338336 840569
19 321885 438761
20 53647 562400
21 132497 981832
22 265266 384187
23 280761 735768
24 406935 994260
25 130234 81844
26 945751 78214
27 165620 643821
28 352043 535113
29 164754 808557
30 580681 572340
31 257149 49042
32 723673 159260
33 260246 9555
34 24976 851071
35 201184 747633
36 37996 120330
37 221112 257968
38 944597 607961
39 752228 865397
40 380351 870426
41 38288 873636
42 311355 582935
43 156409 749957
44 810885 120165
45 327401 789602
46 704890 739336
47 456301 135122
48 370273 537717
49 169615 182937
50 113405 85866
EOF
